(set-logic QF_S)
(declare-fun var0 () String)
(assert (RegexIn var0 (RegexConcat (RegexStar (RegexUnion (Str2Reg "0") (Str2Reg "11"))) (RegexConcat (RegexStar (RegexPlus (Str2Reg "2"))) (RegexConcat (RegexUnion (RegexUnion (Str2Reg "33") (Str2Reg "44")) (RegexUnion (Str2Reg "555") (Str2Reg "666"))) (RegexConcat (RegexStar (RegexStar (Str2Reg "7"))) (RegexConcat (RegexStar (RegexPlus (Str2Reg "888"))) (RegexConcat (RegexPlus (RegexStar (Str2Reg "99"))) (RegexConcat (RegexPlus (RegexUnion (Str2Reg "aa") (Str2Reg "b"))) (RegexConcat (RegexPlus (RegexStar (Str2Reg "ccc"))) (RegexConcat (RegexUnion (RegexPlus (Str2Reg "dd")) (RegexPlus (Str2Reg "e"))) (RegexConcat (RegexStar (RegexPlus (Str2Reg "ff"))) (RegexConcat (RegexPlus (RegexStar (Str2Reg "ggg"))) (RegexConcat (RegexStar (RegexStar (Str2Reg "hh"))) (RegexConcat (RegexUnion (RegexUnion (Str2Reg "i") (Str2Reg "j")) (RegexUnion (Str2Reg "k") (Str2Reg "lll"))) (RegexConcat (RegexStar (RegexStar (Str2Reg "mmm"))) (RegexConcat (RegexStar (RegexPlus (Str2Reg "nn"))) (RegexConcat (RegexPlus (RegexStar (Str2Reg "ooo"))) (RegexConcat (RegexUnion (RegexPlus (Str2Reg "pp")) (RegexPlus (Str2Reg "q"))) (RegexConcat (RegexStar (RegexUnion (Str2Reg "rrr") (Str2Reg "sss"))) (RegexConcat (RegexStar (RegexUnion (Str2Reg "ttt") (Str2Reg "u"))) (RegexConcat (RegexPlus (RegexStar (Str2Reg "vv"))) (RegexConcat (RegexUnion (RegexStar (Str2Reg "w")) (RegexStar (Str2Reg "xxx"))) (RegexConcat (RegexUnion (RegexPlus (Str2Reg "yy")) (RegexPlus (Str2Reg "z"))) (RegexConcat (RegexUnion (RegexStar (Str2Reg "AAA")) (RegexStar (Str2Reg "B"))) (RegexConcat (RegexUnion (RegexStar (Str2Reg "CC")) (RegexStar (Str2Reg "DDD"))) (RegexConcat (RegexStar (RegexPlus (Str2Reg "EEE"))) (RegexConcat (RegexPlus (RegexUnion (Str2Reg "FF") (Str2Reg "GG"))) (RegexConcat (RegexPlus (RegexPlus (Str2Reg "HH"))) (RegexConcat (RegexPlus (RegexStar (Str2Reg "II"))) (RegexConcat (RegexPlus (RegexUnion (Str2Reg "J") (Str2Reg "KK"))) (RegexConcat (RegexPlus (RegexStar (Str2Reg "L"))) (RegexConcat (RegexPlus (RegexPlus (Str2Reg "MM"))) (RegexConcat (RegexStar (RegexUnion (Str2Reg "NNN") (Str2Reg "O"))) (RegexConcat (RegexStar (RegexPlus (Str2Reg "P"))) (RegexConcat (RegexPlus (RegexStar (Str2Reg "QQQ"))) (RegexConcat (RegexPlus (RegexUnion (Str2Reg "RR") (Str2Reg "SSS"))) (RegexConcat (RegexPlus (RegexStar (Str2Reg "T"))) (RegexConcat (RegexStar (RegexStar (Str2Reg "UUU"))) (RegexConcat (RegexPlus (RegexUnion (Str2Reg "VV") (Str2Reg "WW"))) (RegexConcat (RegexUnion (RegexUnion (Str2Reg "XXX") (Str2Reg "YY")) (RegexUnion (Str2Reg "ZZZ") (Str2Reg "!"))) (RegexConcat (RegexStar (RegexPlus (Str2Reg "\"\""))) (RegexConcat (RegexStar (RegexPlus (Str2Reg "###"))) (RegexConcat (RegexStar (RegexPlus (Str2Reg "$"))) (RegexConcat (RegexPlus (RegexStar (Str2Reg "%"))) (RegexConcat (RegexUnion (RegexStar (Str2Reg "&&&")) (RegexStar (Str2Reg "''"))) (RegexConcat (RegexPlus (RegexUnion (Str2Reg "(((") (Str2Reg ")"))) (RegexConcat (RegexPlus (RegexPlus (Str2Reg "*"))) (RegexConcat (RegexUnion (RegexPlus (Str2Reg "+")) (RegexPlus (Str2Reg ",,"))) (RegexConcat (RegexUnion (RegexPlus (Str2Reg "--")) (RegexPlus (Str2Reg "."))) (RegexConcat (RegexUnion (RegexUnion (Str2Reg "//") (Str2Reg "::")) (RegexUnion (Str2Reg ";;;") (Str2Reg "<<<"))) (RegexConcat (RegexStar (RegexStar (Str2Reg "=="))) (RegexConcat (RegexUnion (RegexStar (Str2Reg ">>>")) (RegexStar (Str2Reg "???"))) (RegexConcat (RegexPlus (RegexUnion (Str2Reg "@") (Str2Reg "[[["))) (RegexConcat (RegexStar (RegexUnion (Str2Reg "\\\\\\") (Str2Reg "]]]"))) (RegexConcat (RegexStar (RegexUnion (Str2Reg "^") (Str2Reg "___"))) (RegexConcat (RegexStar (RegexStar (Str2Reg "```"))) (RegexConcat (RegexUnion (RegexPlus (Str2Reg "{{")) (RegexPlus (Str2Reg "|"))) (RegexConcat (RegexUnion (RegexUnion (Str2Reg "}}}") (Str2Reg "~~~")) (RegexUnion (Str2Reg "00") (Str2Reg "1"))) (RegexConcat (RegexPlus (RegexPlus (Str2Reg "222"))) (RegexConcat (RegexStar (RegexUnion (Str2Reg "3") (Str2Reg "44"))) (RegexConcat (RegexStar (RegexStar (Str2Reg "55"))) (RegexConcat (RegexUnion (RegexStar (Str2Reg "6")) (RegexStar (Str2Reg "777"))) (RegexConcat (RegexUnion (RegexStar (Str2Reg "88")) (RegexStar (Str2Reg "9"))) (RegexConcat (RegexPlus (RegexStar (Str2Reg "a"))) (RegexConcat (RegexUnion (RegexUnion (Str2Reg "bb") (Str2Reg "c")) (RegexUnion (Str2Reg "ddd") (Str2Reg "ee"))) (RegexConcat (RegexPlus (RegexStar (Str2Reg "fff"))) (RegexConcat (RegexStar (RegexUnion (Str2Reg "g") (Str2Reg "hh"))) (RegexConcat (RegexPlus (RegexStar (Str2Reg "iii"))) (RegexConcat (RegexStar (RegexStar (Str2Reg "jjj"))) (RegexConcat (RegexUnion (RegexPlus (Str2Reg "k")) (RegexPlus (Str2Reg "l"))) (RegexConcat (RegexPlus (RegexUnion (Str2Reg "mmm") (Str2Reg "nn"))) (RegexConcat (RegexUnion (RegexStar (Str2Reg "oo")) (RegexStar (Str2Reg "pp"))) (RegexConcat (RegexStar (RegexUnion (Str2Reg "q") (Str2Reg "r"))) (RegexConcat (RegexPlus (RegexStar (Str2Reg "ss"))) (RegexConcat (RegexStar (RegexPlus (Str2Reg "tt"))) (RegexConcat (RegexPlus (RegexPlus (Str2Reg "uu"))) (RegexConcat (RegexUnion (RegexUnion (Str2Reg "v") (Str2Reg "ww")) (RegexUnion (Str2Reg "xx") (Str2Reg "y"))) (RegexConcat (RegexUnion (RegexUnion (Str2Reg "zz") (Str2Reg "AAA")) (RegexUnion (Str2Reg "B") (Str2Reg "CCC"))) (RegexConcat (RegexStar (RegexPlus (Str2Reg "DD"))) (RegexConcat (RegexStar (RegexPlus (Str2Reg "EE"))) (RegexConcat (RegexStar (RegexPlus (Str2Reg "F"))) (RegexStar (RegexUnion (Str2Reg "GGG") (Str2Reg "H")))))))))))))))))))))))))))))))))))))))))))))))))))))))))))))))))))))))))))))))))))))
(assert (not (RegexIn var0 (RegexConcat (RegexUnion (RegexPlus (Str2Reg "000")) (RegexPlus (Str2Reg "111"))) (RegexConcat (RegexPlus (RegexUnion (Str2Reg "2") (Str2Reg "3"))) (RegexConcat (RegexUnion (RegexPlus (Str2Reg "44")) (RegexPlus (Str2Reg "5"))) (RegexConcat (RegexStar (RegexUnion (Str2Reg "66") (Str2Reg "77"))) (RegexConcat (RegexStar (RegexPlus (Str2Reg "88"))) (RegexConcat (RegexStar (RegexUnion (Str2Reg "999") (Str2Reg "aaa"))) (RegexConcat (RegexStar (RegexUnion (Str2Reg "b") (Str2Reg "cc"))) (RegexConcat (RegexStar (RegexUnion (Str2Reg "d") (Str2Reg "e"))) (RegexConcat (RegexPlus (RegexUnion (Str2Reg "ff") (Str2Reg "ggg"))) (RegexConcat (RegexUnion (RegexStar (Str2Reg "hhh")) (RegexStar (Str2Reg "i"))) (RegexConcat (RegexPlus (RegexStar (Str2Reg "j"))) (RegexConcat (RegexStar (RegexStar (Str2Reg "kkk"))) (RegexConcat (RegexPlus (RegexPlus (Str2Reg "l"))) (RegexConcat (RegexPlus (RegexStar (Str2Reg "mm"))) (RegexConcat (RegexUnion (RegexPlus (Str2Reg "n")) (RegexPlus (Str2Reg "ooo"))) (RegexConcat (RegexPlus (RegexPlus (Str2Reg "ppp"))) (RegexConcat (RegexPlus (RegexUnion (Str2Reg "q") (Str2Reg "r"))) (RegexConcat (RegexPlus (RegexUnion (Str2Reg "s") (Str2Reg "tt"))) (RegexConcat (RegexPlus (RegexStar (Str2Reg "u"))) (RegexConcat (RegexStar (RegexUnion (Str2Reg "vv") (Str2Reg "ww"))) (RegexConcat (RegexUnion (RegexStar (Str2Reg "xx")) (RegexStar (Str2Reg "yy"))) (RegexConcat (RegexStar (RegexUnion (Str2Reg "zzz") (Str2Reg "AA"))) (RegexConcat (RegexUnion (RegexPlus (Str2Reg "BB")) (RegexPlus (Str2Reg "C"))) (RegexConcat (RegexUnion (RegexUnion (Str2Reg "DD") (Str2Reg "EEE")) (RegexUnion (Str2Reg "FFF") (Str2Reg "GGG"))) (RegexConcat (RegexStar (RegexPlus (Str2Reg "H"))) (RegexConcat (RegexUnion (RegexUnion (Str2Reg "III") (Str2Reg "J")) (RegexUnion (Str2Reg "K") (Str2Reg "L"))) (RegexConcat (RegexStar (RegexStar (Str2Reg "MMM"))) (RegexConcat (RegexStar (RegexStar (Str2Reg "NNN"))) (RegexConcat (RegexPlus (RegexUnion (Str2Reg "OO") (Str2Reg "PP"))) (RegexConcat (RegexUnion (RegexPlus (Str2Reg "QQQ")) (RegexPlus (Str2Reg "RRR"))) (RegexConcat (RegexStar (RegexStar (Str2Reg "SS"))) (RegexConcat (RegexPlus (RegexUnion (Str2Reg "TTT") (Str2Reg "UUU"))) (RegexConcat (RegexPlus (RegexPlus (Str2Reg "V"))) (RegexConcat (RegexUnion (RegexUnion (Str2Reg "W") (Str2Reg "X")) (RegexUnion (Str2Reg "YY") (Str2Reg "ZZZ"))) (RegexConcat (RegexUnion (RegexUnion (Str2Reg "!") (Str2Reg "\"\"\"")) (RegexUnion (Str2Reg "###") (Str2Reg "$$"))) (RegexConcat (RegexStar (RegexStar (Str2Reg "%%%"))) (RegexConcat (RegexStar (RegexUnion (Str2Reg "&") (Str2Reg "'''"))) (RegexConcat (RegexPlus (RegexUnion (Str2Reg "((") (Str2Reg ")))"))) (RegexConcat (RegexStar (RegexPlus (Str2Reg "*"))) (RegexConcat (RegexUnion (RegexUnion (Str2Reg "+") (Str2Reg ",")) (RegexUnion (Str2Reg "-") (Str2Reg "..."))) (RegexConcat (RegexPlus (RegexStar (Str2Reg "//"))) (RegexConcat (RegexStar (RegexStar (Str2Reg "::"))) (RegexConcat (RegexUnion (RegexUnion (Str2Reg ";;") (Str2Reg "<<<")) (RegexUnion (Str2Reg "=") (Str2Reg ">>>"))) (RegexConcat (RegexPlus (RegexPlus (Str2Reg "???"))) (RegexConcat (RegexStar (RegexPlus (Str2Reg "@@"))) (RegexConcat (RegexUnion (RegexUnion (Str2Reg "[[") (Str2Reg "\\\\\\")) (RegexUnion (Str2Reg "]]]") (Str2Reg "^^"))) (RegexConcat (RegexUnion (RegexStar (Str2Reg "_")) (RegexStar (Str2Reg "``"))) (RegexConcat (RegexPlus (RegexStar (Str2Reg "{{"))) (RegexConcat (RegexPlus (RegexStar (Str2Reg "|||"))) (RegexConcat (RegexPlus (RegexUnion (Str2Reg "}}}") (Str2Reg "~~"))) (RegexConcat (RegexPlus (RegexPlus (Str2Reg "000"))) (RegexConcat (RegexPlus (RegexStar (Str2Reg "1"))) (RegexConcat (RegexPlus (RegexUnion (Str2Reg "222") (Str2Reg "3"))) (RegexConcat (RegexUnion (RegexPlus (Str2Reg "444")) (RegexPlus (Str2Reg "5"))) (RegexConcat (RegexUnion (RegexStar (Str2Reg "6")) (RegexStar (Str2Reg "777"))) (RegexConcat (RegexUnion (RegexUnion (Str2Reg "88") (Str2Reg "999")) (RegexUnion (Str2Reg "a") (Str2Reg "bbb"))) (RegexConcat (RegexStar (RegexStar (Str2Reg "cc"))) (RegexConcat (RegexPlus (RegexStar (Str2Reg "ddd"))) (RegexConcat (RegexStar (RegexStar (Str2Reg "eee"))) (RegexConcat (RegexPlus (RegexUnion (Str2Reg "f") (Str2Reg "g"))) (RegexConcat (RegexStar (RegexPlus (Str2Reg "h"))) (RegexConcat (RegexUnion (RegexUnion (Str2Reg "iii") (Str2Reg "jj")) (RegexUnion (Str2Reg "kk") (Str2Reg "l"))) (RegexConcat (RegexPlus (RegexUnion (Str2Reg "mmm") (Str2Reg "nnn"))) (RegexConcat (RegexStar (RegexStar (Str2Reg "o"))) (RegexConcat (RegexUnion (RegexPlus (Str2Reg "ppp")) (RegexPlus (Str2Reg "qq"))) (RegexConcat (RegexPlus (RegexStar (Str2Reg "r"))) (RegexConcat (RegexUnion (RegexStar (Str2Reg "ss")) (RegexStar (Str2Reg "t"))) (RegexConcat (RegexPlus (RegexPlus (Str2Reg "uu"))) (RegexConcat (RegexPlus (RegexStar (Str2Reg "vvv"))) (RegexConcat (RegexStar (RegexStar (Str2Reg "www"))) (RegexConcat (RegexPlus (RegexPlus (Str2Reg "xxx"))) (RegexConcat (RegexStar (RegexStar (Str2Reg "yy"))) (RegexConcat (RegexUnion (RegexUnion (Str2Reg "zz") (Str2Reg "AA")) (RegexUnion (Str2Reg "BB") (Str2Reg "CC"))) (RegexConcat (RegexPlus (RegexStar (Str2Reg "DDD"))) (RegexConcat (RegexStar (RegexStar (Str2Reg "EE"))) (RegexConcat (RegexStar (RegexUnion (Str2Reg "FF") (Str2Reg "GG"))) (RegexConcat (RegexStar (RegexStar (Str2Reg "H"))) (RegexConcat (RegexStar (RegexUnion (Str2Reg "II") (Str2Reg "JJ"))) (RegexConcat (RegexStar (RegexPlus (Str2Reg "KK"))) (RegexConcat (RegexUnion (RegexUnion (Str2Reg "L") (Str2Reg "MMM")) (RegexUnion (Str2Reg "NN") (Str2Reg "OOO"))) (RegexStar (RegexPlus (Str2Reg "P"))))))))))))))))))))))))))))))))))))))))))))))))))))))))))))))))))))))))))))))))))))))
(check-sat)